(benchmark gametime
:status unknown
:logic QF_AUFBV
:extrafuns ((gtAGG__rtDWork  BitVec[32]))
:extrafuns ((gtINDEX61  BitVec[32]))
:extrafuns ((gtINDEX60  BitVec[32]))
:extrafuns ((gtINDEX59  BitVec[32]))
:extrafuns ((gtINDEX58  BitVec[32]))
:extrafuns ((gtINDEX57  BitVec[32]))
:extrafuns ((gtINDEX56  BitVec[32]))
:extrafuns ((gtINDEX55  BitVec[32]))
:extrafuns ((gtINDEX53  BitVec[32]))
:extrafuns ((gtFIELD__bitsForTID0__gtAGG____anonstruct_D_Work_4  Array[32:32]))
:extrafuns ((gtINDEX54  BitVec[32]))
:extrafuns ((gtINDEX51  BitVec[32]))
:extrafuns ((gtINDEX52  BitVec[32]))
:extrafuns ((gtINDEX50  BitVec[32]))
:extrafuns ((gtINDEX49  BitVec[32]))
:extrafuns ((gtINDEX48  BitVec[32]))
:extrafuns ((gtINDEX47  BitVec[32]))
:extrafuns ((gtINDEX46  BitVec[32]))
:extrafuns ((gtINDEX44  BitVec[32]))
:extrafuns ((gtINDEX45  BitVec[32]))
:extrafuns ((gtINDEX42  BitVec[32]))
:extrafuns ((gtINDEX43  BitVec[32]))
:extrafuns ((gtINDEX41  BitVec[32]))
:extrafuns ((gtINDEX40  BitVec[32]))
:extrafuns ((gtINDEX39  BitVec[32]))
:extrafuns ((gtINDEX38  BitVec[32]))
:extrafuns ((gtINDEX37  BitVec[32]))
:extrafuns ((gtINDEX35  BitVec[32]))
:extrafuns ((gtINDEX36  BitVec[32]))
:extrafuns ((gtINDEX33  BitVec[32]))
:extrafuns ((gtINDEX34  BitVec[32]))
:extrafuns ((gtINDEX31  BitVec[32]))
:extrafuns ((gtINDEX32  BitVec[32]))
:extrafuns ((gtINDEX29  BitVec[32]))
:extrafuns ((gtINDEX30  BitVec[32]))
:extrafuns ((gtINDEX28  BitVec[32]))
:extrafuns ((gtINDEX27  BitVec[32]))
:extrafuns ((gtINDEX26  BitVec[32]))
:extrafuns ((gtINDEX25  BitVec[32]))
:extrafuns ((gtINDEX24  BitVec[32]))
:extrafuns ((gtINDEX23  BitVec[32]))
:extrafuns ((gtINDEX21  BitVec[32]))
:extrafuns ((gtINDEX22  BitVec[32]))
:extrafuns ((gtINDEX19  BitVec[32]))
:extrafuns ((gtINDEX20  BitVec[32]))
:extrafuns ((gtINDEX17  BitVec[32]))
:extrafuns ((gtINDEX18  BitVec[32]))
:extrafuns ((gtINDEX15  BitVec[32]))
:extrafuns ((gtINDEX16  BitVec[32]))
:extrafuns ((gtINDEX13  BitVec[32]))
:extrafuns ((gtINDEX14  BitVec[32]))
:extrafuns ((gtINDEX11  BitVec[32]))
:extrafuns ((gtINDEX12  BitVec[32]))
:extrafuns ((gtINDEX9  BitVec[32]))
:extrafuns ((gtINDEX10  BitVec[32]))
:extrafuns ((gtINDEX7  BitVec[32]))
:extrafuns ((gtINDEX8  BitVec[32]))
:extrafuns ((gtINDEX6  BitVec[32]))
:extrafuns ((gtINDEX5  BitVec[32]))
:extrafuns ((gtINDEX4  BitVec[32]))
:extrafuns ((gtINDEX3  BitVec[32]))
:extrafuns ((gtINDEX2  BitVec[32]))
:extrafuns ((gtINDEX1  BitVec[32]))
:extrafuns ((gtINDEX0  BitVec[32]))
:extrafuns ((gtFIELD__sh_rst__gtAGG____anonstruct_D_Work_4  Array[32:32]))
:extrafuns ((gtFIELD__sent__gtAGG____anonstruct_D_Work_4  Array[32:32]))
:extrafuns ((gtFIELD__is_Eng__gtAGG____anonstruct_bitsForTID0_5  Array[32:1]))
:extrafuns ((gtFIELD__is_active_Eng__gtAGG____anonstruct_bitsForTID0_5  Array[32:1]))
:extrafuns ((gtFIELD__URId__gtAGG____anonstruct_D_Work_4  Array[32:32]))
:extrafuns ((gtFIELD__n_t_a__gtAGG____anonstruct_D_Work_4  Array[32:32]))
:extrafuns ((gtFIELD__temporalCounter_i5__gtAGG____anonstruct_D_Work_4  Array[32:32]))
:extrafuns ((gtFIELD__comm__gtAGG____anonstruct_D_Work_4  Array[32:32]))
:extrafuns ((sfEvent_  BitVec[32]))
:extrafuns ((gtFIELD__is_PURI__gtAGG____anonstruct_bitsForTID0_5  Array[32:2]))
:extrafuns ((gtFIELD__is_active_PURI__gtAGG____anonstruct_bitsForTID0_5  Array[32:1]))
:extrafuns ((gtFIELD__VRPd__gtAGG____anonstruct_D_Work_4  Array[32:32]))
:extrafuns ((gtFIELD__n_t_a1__gtAGG____anonstruct_D_Work_4  Array[32:32]))
:extrafuns ((gtFIELD__temporalCounter_i4__gtAGG____anonstruct_D_Work_4  Array[32:32]))
:extrafuns ((gtFIELD__is_PVRP__gtAGG____anonstruct_bitsForTID0_5  Array[32:2]))
:extrafuns ((gtFIELD__is_active_PVRP__gtAGG____anonstruct_bitsForTID0_5  Array[32:1]))
:extrafuns ((gtFIELD__is_active_PPVARP__gtAGG____anonstruct_bitsForTID0_5  Array[32:1]))
:extrafuns ((gtFIELD__AVId__gtAGG____anonstruct_D_Work_4  Array[32:32]))
:extrafuns ((gtFIELD__LRId__gtAGG____anonstruct_D_Work_4  Array[32:32]))
:extrafuns ((gtFIELD__n_t_n__gtAGG____anonstruct_D_Work_4  Array[32:32]))
:extrafuns ((gtFIELD__temporalCounter_i2__gtAGG____anonstruct_D_Work_4  Array[32:32]))
:extrafuns ((gtFIELD__is_PLRI__gtAGG____anonstruct_bitsForTID0_5  Array[32:2]))
:extrafuns ((gtFIELD__is_active_PLRI__gtAGG____anonstruct_bitsForTID0_5  Array[32:1]))
:extrafuns ((gtFIELD__is_PAVI__gtAGG____anonstruct_bitsForTID0_5  Array[32:3]))
:extrafuns ((gtFIELD__is_PAVI__gtAGG____anonstruct_bitsForTID0_5_1_  Array[32:3]))
:extrafuns ((gtFIELD__is_active_PAVI__gtAGG____anonstruct_bitsForTID0_5  Array[32:1]))
:extrafuns ((gtFIELD__temporalCounter_i3__gtAGG____anonstruct_D_Work_4  Array[32:32]))
:extrafuns ((gtFIELD__temporalCounter_i3__gtAGG____anonstruct_D_Work_4_1_  Array[32:32]))
:extrafuns ((gtFIELD__temporalCounter_i1__gtAGG____anonstruct_D_Work_4  Array[32:32]))
:extrapreds ((constraint105 ))
:extrapreds ((constraint104 ))
:extrapreds ((constraint103 ))
:extrapreds ((constraint102 ))
:extrapreds ((constraint101 ))
:extrapreds ((constraint100 ))
:extrapreds ((constraint99 ))
:extrapreds ((constraint98 ))
:extrapreds ((constraint97 ))
:extrapreds ((constraint96 ))
:extrapreds ((constraint95 ))
:extrapreds ((constraint94 ))
:extrapreds ((constraint93 ))
:extrapreds ((constraint92 ))
:extrapreds ((constraint91 ))
:extrapreds ((constraint90 ))
:extrapreds ((constraint89 ))
:extrapreds ((constraint88 ))
:extrapreds ((constraint87 ))
:extrapreds ((constraint86 ))
:extrapreds ((constraint85 ))
:extrapreds ((constraint84 ))
:extrapreds ((constraint83 ))
:extrapreds ((constraint82 ))
:extrapreds ((constraint81 ))
:extrapreds ((constraint80 ))
:extrapreds ((constraint79 ))
:extrapreds ((constraint78 ))
:extrapreds ((constraint77 ))
:extrapreds ((constraint76 ))
:extrapreds ((constraint75 ))
:extrapreds ((constraint74 ))
:extrapreds ((constraint73 ))
:extrapreds ((constraint72 ))
:extrapreds ((constraint71 ))
:extrapreds ((constraint70 ))
:extrapreds ((constraint69 ))
:extrapreds ((constraint68 ))
:extrapreds ((constraint67 ))
:extrapreds ((constraint66 ))
:extrapreds ((constraint65 ))
:extrapreds ((constraint64 ))
:extrapreds ((constraint63 ))
:extrapreds ((constraint62 ))
:extrapreds ((constraint61 ))
:extrapreds ((constraint60 ))
:extrapreds ((constraint59 ))
:extrapreds ((constraint58 ))
:extrapreds ((constraint57 ))
:extrapreds ((constraint56 ))
:extrapreds ((constraint55 ))
:extrapreds ((constraint54 ))
:extrapreds ((constraint53 ))
:extrapreds ((constraint52 ))
:extrapreds ((constraint51 ))
:extrapreds ((constraint50 ))
:extrapreds ((constraint49 ))
:extrapreds ((constraint48 ))
:extrapreds ((constraint47 ))
:extrapreds ((constraint46 ))
:extrapreds ((constraint45 ))
:extrapreds ((constraint44 ))
:extrapreds ((constraint43 ))
:extrapreds ((constraint42 ))
:extrapreds ((constraint41 ))
:extrapreds ((constraint40 ))
:extrapreds ((constraint39 ))
:extrapreds ((constraint38 ))
:extrapreds ((constraint37 ))
:extrapreds ((constraint36 ))
:extrapreds ((constraint35 ))
:extrapreds ((constraint34 ))
:extrapreds ((constraint33 ))
:extrapreds ((constraint32 ))
:extrapreds ((constraint31 ))
:extrapreds ((constraint30 ))
:extrapreds ((constraint29 ))
:extrapreds ((constraint28 ))
:extrapreds ((constraint27 ))
:extrapreds ((constraint26 ))
:extrapreds ((constraint25 ))
:extrapreds ((constraint24 ))
:extrapreds ((constraint23 ))
:extrapreds ((constraint22 ))
:extrapreds ((constraint21 ))
:extrapreds ((constraint20 ))
:extrapreds ((constraint19 ))
:extrapreds ((constraint18 ))
:extrapreds ((constraint17 ))
:extrapreds ((constraint16 ))
:extrapreds ((constraint15 ))
:extrapreds ((constraint14 ))
:extrapreds ((constraint13 ))
:extrapreds ((constraint12 ))
:extrapreds ((constraint11 ))
:extrapreds ((constraint10 ))
:extrapreds ((constraint9 ))
:extrapreds ((constraint8 ))
:extrapreds ((constraint7 ))
:extrapreds ((constraint6 ))
:extrapreds ((constraint5 ))
:extrapreds ((constraint4 ))
:extrapreds ((constraint3 ))
:extrapreds ((constraint2 ))
:extrapreds ((constraint1 ))
:extrapreds ((constraint0 ))
:formula
(flet ($x555 (and constraint0 constraint1 constraint2 constraint3 constraint4 constraint5 constraint6 constraint7 constraint8 constraint9 constraint10 constraint11 constraint12 constraint13 constraint14 constraint15 constraint16 constraint17 constraint18 constraint19 constraint20 constraint21 constraint22 constraint23 constraint24 constraint25 constraint26 constraint27 constraint28 constraint29 constraint30 constraint31 constraint32 constraint33 constraint34 constraint35 constraint36 constraint37 constraint38 constraint39 constraint40 constraint41 constraint42 constraint43 constraint44 constraint45 constraint46 constraint47 constraint48 constraint49 constraint50 constraint51 constraint52 constraint53 constraint54 constraint55 constraint56 constraint57 constraint58 constraint59 constraint60 constraint61 constraint62 constraint63 constraint64 constraint65 constraint66 constraint67 constraint68 constraint69 constraint70 constraint71 constraint72 constraint73 constraint74 constraint75 constraint76 constraint77 constraint78 constraint79 constraint80 constraint81 constraint82 constraint83 constraint84 constraint85 constraint86 constraint87 constraint88 constraint89 constraint90 constraint91 constraint92 constraint93 constraint94 constraint95 constraint96 constraint97 constraint98 constraint99 constraint100 constraint101 constraint102 constraint103 constraint104 constraint105))
(flet ($x334 (= gtINDEX54 (select gtFIELD__bitsForTID0__gtAGG____anonstruct_D_Work_4 gtINDEX53)))
(flet ($x330 (= gtINDEX52 (select gtFIELD__bitsForTID0__gtAGG____anonstruct_D_Work_4 gtINDEX51)))
(flet ($x321 (= gtINDEX45 (select gtFIELD__bitsForTID0__gtAGG____anonstruct_D_Work_4 gtINDEX44)))
(flet ($x317 (= gtINDEX43 (select gtFIELD__bitsForTID0__gtAGG____anonstruct_D_Work_4 gtINDEX42)))
(flet ($x308 (= gtINDEX36 (select gtFIELD__bitsForTID0__gtAGG____anonstruct_D_Work_4 gtINDEX35)))
(flet ($x304 (= gtINDEX34 (select gtFIELD__bitsForTID0__gtAGG____anonstruct_D_Work_4 gtINDEX33)))
(flet ($x300 (= gtINDEX32 (select gtFIELD__bitsForTID0__gtAGG____anonstruct_D_Work_4 gtINDEX31)))
(flet ($x296 (= gtINDEX30 (select gtFIELD__bitsForTID0__gtAGG____anonstruct_D_Work_4 gtINDEX29)))
(flet ($x286 (= gtINDEX22 (select gtFIELD__bitsForTID0__gtAGG____anonstruct_D_Work_4 gtINDEX21)))
(flet ($x282 (= gtINDEX20 (select gtFIELD__bitsForTID0__gtAGG____anonstruct_D_Work_4 gtINDEX19)))
(flet ($x278 (= gtINDEX18 (select gtFIELD__bitsForTID0__gtAGG____anonstruct_D_Work_4 gtINDEX17)))
(flet ($x274 (= gtINDEX16 (select gtFIELD__bitsForTID0__gtAGG____anonstruct_D_Work_4 gtINDEX15)))
(flet ($x270 (= gtINDEX14 (select gtFIELD__bitsForTID0__gtAGG____anonstruct_D_Work_4 gtINDEX13)))
(flet ($x266 (= gtINDEX12 (select gtFIELD__bitsForTID0__gtAGG____anonstruct_D_Work_4 gtINDEX11)))
(flet ($x262 (= gtINDEX10 (select gtFIELD__bitsForTID0__gtAGG____anonstruct_D_Work_4 gtINDEX9)))
(flet ($x258 (= gtINDEX8 (select gtFIELD__bitsForTID0__gtAGG____anonstruct_D_Work_4 gtINDEX7)))
(flet ($x245 (= (select gtFIELD__sh_rst__gtAGG____anonstruct_D_Work_4 gtINDEX61) bv1[32]))
(flet ($x241 (= (select gtFIELD__sent__gtAGG____anonstruct_D_Work_4 gtINDEX60) bv3[32]))
(flet ($x237 (= (select gtFIELD__sent__gtAGG____anonstruct_D_Work_4 gtINDEX59) bv2[32]))
(flet ($x233 (= (select gtFIELD__sent__gtAGG____anonstruct_D_Work_4 gtINDEX58) bv1[32]))
(flet ($x229 (= (select gtFIELD__sent__gtAGG____anonstruct_D_Work_4 gtINDEX57) (bvmul bv4294967295[32] bv1[32])))
(flet ($x224 (= (select gtFIELD__sent__gtAGG____anonstruct_D_Work_4 gtINDEX56) bv9[32]))
(flet ($x219 (= (select gtFIELD__sent__gtAGG____anonstruct_D_Work_4 gtINDEX55) bv4[32]))
(let (?x215 (zero_extend[31] (select gtFIELD__is_Eng__gtAGG____anonstruct_bitsForTID0_5 gtINDEX54)))
(let (?x209 (select gtFIELD__is_active_Eng__gtAGG____anonstruct_bitsForTID0_5 gtINDEX52))
(let (?x205 (bvadd (select gtFIELD__n_t_a__gtAGG____anonstruct_D_Work_4 gtINDEX49) (select gtFIELD__URId__gtAGG____anonstruct_D_Work_4 gtINDEX50)))
(let (?x200 (select gtFIELD__temporalCounter_i5__gtAGG____anonstruct_D_Work_4 gtINDEX48))
(flet ($x198 (= (select gtFIELD__comm__gtAGG____anonstruct_D_Work_4 gtINDEX47) bv0[32]))
(flet ($x195 (= (select gtFIELD__sent__gtAGG____anonstruct_D_Work_4 gtINDEX46) bv0[32]))
(let (?x190 (select gtFIELD__is_PURI__gtAGG____anonstruct_bitsForTID0_5 gtINDEX45))
(let (?x185 (select gtFIELD__is_active_PURI__gtAGG____anonstruct_bitsForTID0_5 gtINDEX43))
(let (?x181 (bvadd (select gtFIELD__n_t_a1__gtAGG____anonstruct_D_Work_4 gtINDEX40) (select gtFIELD__VRPd__gtAGG____anonstruct_D_Work_4 gtINDEX41)))
(let (?x176 (select gtFIELD__temporalCounter_i4__gtAGG____anonstruct_D_Work_4 gtINDEX39))
(flet ($x174 (= (select gtFIELD__comm__gtAGG____anonstruct_D_Work_4 gtINDEX38) bv0[32]))
(flet ($x171 (= (select gtFIELD__sent__gtAGG____anonstruct_D_Work_4 gtINDEX37) bv0[32]))
(let (?x166 (select gtFIELD__is_PVRP__gtAGG____anonstruct_bitsForTID0_5 gtINDEX36))
(let (?x161 (select gtFIELD__is_PVRP__gtAGG____anonstruct_bitsForTID0_5 gtINDEX34))
(let (?x156 (select gtFIELD__is_active_PVRP__gtAGG____anonstruct_bitsForTID0_5 gtINDEX32))
(let (?x150 (select gtFIELD__is_active_PPVARP__gtAGG____anonstruct_bitsForTID0_5 gtINDEX30))
(let (?x138 (bvmul bv4294967295[32] (select gtFIELD__AVId__gtAGG____anonstruct_D_Work_4 gtINDEX28)))
(let (?x135 (bvadd (select gtFIELD__n_t_n__gtAGG____anonstruct_D_Work_4 gtINDEX26) (select gtFIELD__LRId__gtAGG____anonstruct_D_Work_4 gtINDEX27)))
(let (?x130 (select gtFIELD__temporalCounter_i2__gtAGG____anonstruct_D_Work_4 gtINDEX25))
(flet ($x128 (= (select gtFIELD__comm__gtAGG____anonstruct_D_Work_4 gtINDEX24) bv0[32]))
(flet ($x125 (= (select gtFIELD__sent__gtAGG____anonstruct_D_Work_4 gtINDEX23) bv0[32]))
(let (?x120 (select gtFIELD__is_PLRI__gtAGG____anonstruct_bitsForTID0_5 gtINDEX22))
(let (?x115 (select gtFIELD__is_active_PLRI__gtAGG____anonstruct_bitsForTID0_5 gtINDEX20))
(let (?x112 (store gtFIELD__is_PAVI__gtAGG____anonstruct_bitsForTID0_5 gtINDEX18 (extract[2:0] bv0[32])))
(flet ($x367 (iff constraint12 (= gtFIELD__is_PAVI__gtAGG____anonstruct_bitsForTID0_5_1_ ?x112)))
(let (?x105 (select gtFIELD__is_PAVI__gtAGG____anonstruct_bitsForTID0_5 gtINDEX16))
(let (?x99 (select gtFIELD__is_PAVI__gtAGG____anonstruct_bitsForTID0_5 gtINDEX14))
(let (?x93 (select gtFIELD__is_PAVI__gtAGG____anonstruct_bitsForTID0_5 gtINDEX12))
(let (?x88 (select gtFIELD__is_PAVI__gtAGG____anonstruct_bitsForTID0_5 gtINDEX10))
(let (?x82 (select gtFIELD__is_active_PAVI__gtAGG____anonstruct_bitsForTID0_5 gtINDEX8))
(let (?x78 (select gtFIELD__temporalCounter_i5__gtAGG____anonstruct_D_Work_4 gtINDEX6))
(let (?x74 (select gtFIELD__temporalCounter_i4__gtAGG____anonstruct_D_Work_4 gtINDEX5))
(let (?x68 (select gtFIELD__temporalCounter_i3__gtAGG____anonstruct_D_Work_4 gtINDEX3))
(let (?x71 (store gtFIELD__temporalCounter_i3__gtAGG____anonstruct_D_Work_4 gtINDEX4 (bvadd ?x68 bv1[32])))
(flet ($x351 (iff constraint4 (= gtFIELD__temporalCounter_i3__gtAGG____anonstruct_D_Work_4_1_ ?x71)))
(let (?x64 (select gtFIELD__temporalCounter_i3__gtAGG____anonstruct_D_Work_4 gtINDEX2))
(let (?x60 (select gtFIELD__temporalCounter_i2__gtAGG____anonstruct_D_Work_4 gtINDEX1))
(let (?x55 (select gtFIELD__temporalCounter_i1__gtAGG____anonstruct_D_Work_4 gtINDEX0))
(flet ($x554 (and (iff constraint0 (= sfEvent_ bv8[32])) (iff constraint1 (not (bvult ?x55 bv4294967295[32]))) (iff constraint2 (not (bvult ?x60 bv4294967295[32]))) (iff constraint3 (bvult ?x64 bv4294967295[32])) $x351 (iff constraint5 (not (bvult ?x74 bv4294967295[32]))) (iff constraint6 (not (bvult ?x78 bv4294967295[32]))) (iff constraint7 (not (= (zero_extend[31] ?x82) bv0[32]))) (iff constraint8 (not (= (zero_extend[29] ?x88) bv1[32]))) (iff constraint9 (not (= (zero_extend[29] ?x93) bv2[32]))) (iff constraint10 (not (= (zero_extend[29] ?x99) bv3[32]))) (iff constraint11 (not (= (zero_extend[29] ?x105) bv4[32]))) $x367 (iff constraint13 (not (= (zero_extend[31] ?x115) bv0[32]))) (iff constraint14 (= (zero_extend[30] ?x120) bv1[32])) (iff constraint15 $x125) (iff constraint16 $x128) (iff constraint17 (not (= ?x130 (bvadd ?x135 ?x138)))) (iff constraint18 (not (= sfEvent_ bv4[32]))) (iff constraint19 (not (= sfEvent_ bv5[32]))) (iff constraint20 (not (= sfEvent_ bv3[32]))) (iff constraint21 (not (not (= (zero_extend[31] ?x150) bv0[32])))) (iff constraint22 (not (= (zero_extend[31] ?x156) bv0[32]))) (iff constraint23 (not (= (zero_extend[30] ?x161) bv1[32]))) (iff constraint24 (= (zero_extend[30] ?x166) bv2[32])) (iff constraint25 $x171) (iff constraint26 $x174) (iff constraint27 (not (= ?x176 ?x181))) (iff constraint28 (not (= (zero_extend[31] ?x185) bv0[32]))) (iff constraint29 (= (zero_extend[30] ?x190) bv1[32])) (iff constraint30 (not (= sfEvent_ bv4[32]))) (iff constraint31 (not (= sfEvent_ bv5[32]))) (iff constraint32 $x195) (iff constraint33 $x198) (iff constraint34 (not (= ?x200 ?x205))) (iff constraint35 (not (= (zero_extend[31] ?x209) bv0[32]))) (iff constraint36 (= ?x215 bv1[32])) (iff constraint37 (not $x219)) (iff constraint38 (not $x224)) (iff constraint39 (not $x229)) (iff constraint40 (not $x233)) (iff constraint41 (not $x237)) (iff constraint42 (not $x241)) (iff constraint43 (not $x245)) (iff constraint44 (= gtINDEX0 gtAGG__rtDWork)) (iff constraint45 (= gtINDEX1 gtAGG__rtDWork)) (iff constraint46 (= gtINDEX2 gtAGG__rtDWork)) (iff constraint47 (= gtINDEX3 gtAGG__rtDWork)) (iff constraint48 (= gtINDEX4 gtAGG__rtDWork)) (iff constraint49 (= gtINDEX5 gtAGG__rtDWork)) (iff constraint50 (= gtINDEX6 gtAGG__rtDWork)) (iff constraint51 (= gtINDEX7 gtAGG__rtDWork)) (iff constraint52 $x258) (iff constraint53 (= gtINDEX9 gtAGG__rtDWork)) (iff constraint54 $x262) (iff constraint55 (= gtINDEX11 gtAGG__rtDWork)) (iff constraint56 $x266) (iff constraint57 (= gtINDEX13 gtAGG__rtDWork)) (iff constraint58 $x270) (iff constraint59 (= gtINDEX15 gtAGG__rtDWork)) (iff constraint60 $x274) (iff constraint61 (= gtINDEX17 gtAGG__rtDWork)) (iff constraint62 $x278) (iff constraint63 (= gtINDEX19 gtAGG__rtDWork)) (iff constraint64 $x282) (iff constraint65 (= gtINDEX21 gtAGG__rtDWork)) (iff constraint66 $x286) (iff constraint67 (= gtINDEX23 gtAGG__rtDWork)) (iff constraint68 (= gtINDEX24 gtAGG__rtDWork)) (iff constraint69 (= gtINDEX25 gtAGG__rtDWork)) (iff constraint70 (= gtINDEX26 gtAGG__rtDWork)) (iff constraint71 (= gtINDEX27 gtAGG__rtDWork)) (iff constraint72 (= gtINDEX28 gtAGG__rtDWork)) (iff constraint73 (= gtINDEX29 gtAGG__rtDWork)) (iff constraint74 $x296) (iff constraint75 (= gtINDEX31 gtAGG__rtDWork)) (iff constraint76 $x300) (iff constraint77 (= gtINDEX33 gtAGG__rtDWork)) (iff constraint78 $x304) (iff constraint79 (= gtINDEX35 gtAGG__rtDWork)) (iff constraint80 $x308) (iff constraint81 (= gtINDEX37 gtAGG__rtDWork)) (iff constraint82 (= gtINDEX38 gtAGG__rtDWork)) (iff constraint83 (= gtINDEX39 gtAGG__rtDWork)) (iff constraint84 (= gtINDEX40 gtAGG__rtDWork)) (iff constraint85 (= gtINDEX41 gtAGG__rtDWork)) (iff constraint86 (= gtINDEX42 gtAGG__rtDWork)) (iff constraint87 $x317) (iff constraint88 (= gtINDEX44 gtAGG__rtDWork)) (iff constraint89 $x321) (iff constraint90 (= gtINDEX46 gtAGG__rtDWork)) (iff constraint91 (= gtINDEX47 gtAGG__rtDWork)) (iff constraint92 (= gtINDEX48 gtAGG__rtDWork)) (iff constraint93 (= gtINDEX49 gtAGG__rtDWork)) (iff constraint94 (= gtINDEX50 gtAGG__rtDWork)) (iff constraint95 (= gtINDEX51 gtAGG__rtDWork)) (iff constraint96 $x330) (iff constraint97 (= gtINDEX53 gtAGG__rtDWork)) (iff constraint98 $x334) (iff constraint99 (= gtINDEX55 gtAGG__rtDWork)) (iff constraint100 (= gtINDEX56 gtAGG__rtDWork)) (iff constraint101 (= gtINDEX57 gtAGG__rtDWork)) (iff constraint102 (= gtINDEX58 gtAGG__rtDWork)) (iff constraint103 (= gtINDEX59 gtAGG__rtDWork)) (iff constraint104 (= gtINDEX60 gtAGG__rtDWork)) (iff constraint105 (= gtINDEX61 gtAGG__rtDWork))))
(and $x554 $x555))))))))))))))))))))))))))))))))))))))))))))))))))))))))))))))))
)
